eval/18-encs/equiv_enc_604.smt2
; PUSH cw_2 SHA3 PUSH cw_3 SWAP2 POP SWAP1 => SWAP1 POP PUSH cw_2 SHA3 PUSH cw_3
(set-option :produce-proofs true)
; 
(set-info :status unknown)
(declare-fun storage_t ((_ BitVec 256) (_ BitVec 256) (_ BitVec 256) (_ BitVec 256) (_ BitVec 256) Int (_ BitVec 256)) (_ BitVec 256))
(declare-fun w_3 () (_ BitVec 256))
(declare-fun w_2 () (_ BitVec 256))
(declare-fun storage_s ((_ BitVec 256) (_ BitVec 256) (_ BitVec 256) (_ BitVec 256) (_ BitVec 256) Int (_ BitVec 256)) (_ BitVec 256))
(declare-fun exc_halt_t (Int) Bool)
(declare-fun exc_halt_s (Int) Bool)
(declare-fun sc_t (Int) (_ BitVec 6))
(declare-fun stack_t ((_ BitVec 256) (_ BitVec 256) (_ BitVec 256) (_ BitVec 256) (_ BitVec 256) Int (_ BitVec 6)) (_ BitVec 256))
(declare-fun stack_s ((_ BitVec 256) (_ BitVec 256) (_ BitVec 256) (_ BitVec 256) (_ BitVec 256) Int (_ BitVec 6)) (_ BitVec 256))
(declare-fun sc_s (Int) (_ BitVec 6))
(declare-fun used_gas_t ((_ BitVec 256) (_ BitVec 256) (_ BitVec 256) (_ BitVec 256) (_ BitVec 256) Int) Int)
(declare-fun used_gas_s ((_ BitVec 256) (_ BitVec 256) (_ BitVec 256) (_ BitVec 256) (_ BitVec 256) Int) Int)
(declare-fun f_SHA3 ((_ BitVec 256) (_ BitVec 256) (_ BitVec 256) (_ BitVec 256) (_ BitVec 256) (_ BitVec 256) (_ BitVec 256)) (_ BitVec 256))
(assert
 (exists ((x_0 (_ BitVec 256)) (x_1 (_ BitVec 256)) (x_SHA3_0 (_ BitVec 256)) )(let (($x10205 (forall ((w (_ BitVec 256)) )(let ((?x6279 (storage_t x_0 x_1 w_2 w_3 x_SHA3_0 5 w)))
 (let ((?x10856 (storage_s x_0 x_1 w_2 w_3 x_SHA3_0 6 w)))
 (= ?x10856 ?x6279))))
 ))
 (let (($x1885 (exc_halt_t 5)))
 (let (($x772 (exc_halt_s 6)))
 (let (($x11108 (= $x772 $x1885)))
 (let (($x11682 (forall ((n (_ BitVec 6)) )(let ((?x8961 (sc_t 5)))
 (let (($x10483 (bvsle ?x8961 n)))
 (let ((?x9170 (stack_t x_0 x_1 w_2 w_3 x_SHA3_0 5 n)))
 (let ((?x7625 (stack_s x_0 x_1 w_2 w_3 x_SHA3_0 6 n)))
 (let (($x10093 (= ?x7625 ?x9170)))
 (or $x10093 $x10483)))))))
 ))
 (let ((?x8961 (sc_t 5)))
 (let ((?x926 (sc_s 6)))
 (let (($x5889 (= ?x926 ?x8961)))
 (let ((?x3562 (used_gas_t x_0 x_1 w_2 w_3 x_SHA3_0 0)))
 (let ((?x7703 (used_gas_s x_0 x_1 w_2 w_3 x_SHA3_0 0)))
 (let (($x9094 (= ?x7703 ?x3562)))
 (let (($x6788 (forall ((w (_ BitVec 256)) )(let ((?x9617 (storage_t x_0 x_1 w_2 w_3 x_SHA3_0 0 w)))
 (let ((?x7448 (storage_s x_0 x_1 w_2 w_3 x_SHA3_0 0 w)))
 (= ?x7448 ?x9617))))
 ))
 (let (($x56 (exc_halt_t 0)))
 (let (($x57 (exc_halt_s 0)))
 (let (($x58 (= $x57 $x56)))
 (let (($x7685 (forall ((n (_ BitVec 6)) )(let ((?x63 (sc_t 0)))
 (let (($x11399 (bvsle ?x63 n)))
 (let ((?x6103 (stack_t x_0 x_1 w_2 w_3 x_SHA3_0 0 n)))
 (let ((?x7436 (stack_s x_0 x_1 w_2 w_3 x_SHA3_0 0 n)))
 (let (($x1873 (= ?x7436 ?x6103)))
 (or $x1873 $x11399)))))))
 ))
 (let ((?x63 (sc_t 0)))
 (let ((?x72 (sc_s 0)))
 (let (($x73 (= ?x72 ?x63)))
 (let (($x7854 (exc_halt_t 4)))
 (let (($x4077 (or $x7854 (not (= ((_ extract 6 6) (bvadd (_ bv1 7) (concat (_ bv0 1) (sc_t 4)))) (_ bv0 1))))))
 (let (($x6234 (forall ((w (_ BitVec 256)) )(let ((?x10172 (storage_t x_0 x_1 w_2 w_3 x_SHA3_0 4 w)))
 (let ((?x6279 (storage_t x_0 x_1 w_2 w_3 x_SHA3_0 5 w)))
 (= ?x6279 ?x10172))))
 ))
 (let (($x4032 (forall ((n (_ BitVec 6)) )(let ((?x11316 (stack_t x_0 x_1 w_2 w_3 x_SHA3_0 4 n)))
 (let ((?x9170 (stack_t x_0 x_1 w_2 w_3 x_SHA3_0 5 n)))
 (or (bvsle (sc_t 4) n) (= ?x9170 ?x11316)))))
 ))
 (let (($x10182 (= (used_gas_t x_0 x_1 w_2 w_3 x_SHA3_0 5) (+ 3 (used_gas_t x_0 x_1 w_2 w_3 x_SHA3_0 4)))))
 (let (($x11807 (= $x7854 (or (exc_halt_t 3) (not (bvsle (_ bv0 6) (bvadd (_ bv62 6) (sc_t 3))))))))
 (let (($x10672 (forall ((w (_ BitVec 256)) )(let ((?x7462 (storage_t x_0 x_1 w_2 w_3 x_SHA3_0 3 w)))
 (let ((?x10172 (storage_t x_0 x_1 w_2 w_3 x_SHA3_0 4 w)))
 (= ?x10172 ?x7462))))
 ))
 (let (($x8630 (forall ((n (_ BitVec 6)) )(let ((?x8849 (stack_t x_0 x_1 w_2 w_3 x_SHA3_0 3 n)))
 (let ((?x11316 (stack_t x_0 x_1 w_2 w_3 x_SHA3_0 4 n)))
 (or (bvsle (bvadd (_ bv62 6) (sc_t 3)) n) (= ?x11316 ?x8849)))))
 ))
 (let ((?x7424 (used_gas_t x_0 x_1 w_2 w_3 x_SHA3_0 4)))
 (let ((?x9390 (f_SHA3 x_0 x_1 w_2 w_3 x_SHA3_0 (stack_t x_0 x_1 w_2 w_3 x_SHA3_0 3 (bvadd (_ bv63 6) (sc_t 3))) (stack_t x_0 x_1 w_2 w_3 x_SHA3_0 3 (bvadd (_ bv62 6) (sc_t 3))))))
 (let (($x5110 (= (stack_t x_0 x_1 w_2 w_3 x_SHA3_0 4 (bvadd (_ bv63 6) (sc_t 4))) ?x9390)))
 (let (($x9627 (exc_halt_t 2)))
 (let (($x4347 (or $x9627 (not (= ((_ extract 6 6) (bvadd (_ bv1 7) (concat (_ bv0 1) (sc_t 2)))) (_ bv0 1))))))
 (let (($x3614 (exc_halt_t 3)))
 (let (($x3796 (forall ((w (_ BitVec 256)) )(let ((?x10541 (storage_t x_0 x_1 w_2 w_3 x_SHA3_0 2 w)))
 (let ((?x7462 (storage_t x_0 x_1 w_2 w_3 x_SHA3_0 3 w)))
 (= ?x7462 ?x10541))))
 ))
 (let (($x8325 (forall ((n (_ BitVec 6)) )(let ((?x2714 (sc_t 2)))
 (let (($x9801 (bvsle ?x2714 n)))
 (let ((?x1546 (stack_t x_0 x_1 w_2 w_3 x_SHA3_0 2 n)))
 (let ((?x8849 (stack_t x_0 x_1 w_2 w_3 x_SHA3_0 3 n)))
 (or (= ?x8849 ?x1546) $x9801))))))
 ))
 (let ((?x9416 (used_gas_t x_0 x_1 w_2 w_3 x_SHA3_0 3)))
 (let (($x3477 (= $x9627 (or (exc_halt_t 1) (not (bvsle (_ bv0 6) (bvadd (_ bv63 6) (sc_t 1))))))))
 (let (($x2316 (forall ((w (_ BitVec 256)) )(let ((?x655 (storage_t x_0 x_1 w_2 w_3 x_SHA3_0 1 w)))
 (let ((?x10541 (storage_t x_0 x_1 w_2 w_3 x_SHA3_0 2 w)))
 (= ?x10541 ?x655))))
 ))
 (let (($x9530 (forall ((n (_ BitVec 6)) )(let ((?x6262 (stack_t x_0 x_1 w_2 w_3 x_SHA3_0 1 n)))
 (let ((?x1546 (stack_t x_0 x_1 w_2 w_3 x_SHA3_0 2 n)))
 (or (bvsle (bvadd (_ bv63 6) (sc_t 1)) n) (= ?x1546 ?x6262)))))
 ))
 (let ((?x9538 (used_gas_t x_0 x_1 w_2 w_3 x_SHA3_0 2)))
 (let (($x3501 (forall ((w (_ BitVec 256)) )(let ((?x9617 (storage_t x_0 x_1 w_2 w_3 x_SHA3_0 0 w)))
 (let ((?x655 (storage_t x_0 x_1 w_2 w_3 x_SHA3_0 1 w)))
 (= ?x655 ?x9617))))
 ))
 (let (($x4476 (forall ((n (_ BitVec 6)) )(let ((?x6103 (stack_t x_0 x_1 w_2 w_3 x_SHA3_0 0 n)))
 (let ((?x6262 (stack_t x_0 x_1 w_2 w_3 x_SHA3_0 1 n)))
 (or (= ?x6262 ?x6103) (bvsle (bvadd (_ bv62 6) (sc_t 0)) n)))))
 ))
 (let ((?x7154 (sc_t 1)))
 (let (($x9808 (= ?x7154 ?x63)))
 (let (($x680 (= (stack_t x_0 x_1 w_2 w_3 x_SHA3_0 1 (bvadd (_ bv62 6) ?x7154)) (stack_t x_0 x_1 w_2 w_3 x_SHA3_0 0 (bvadd (_ bv63 6) ?x63)))))
 (let (($x11461 (= (stack_t x_0 x_1 w_2 w_3 x_SHA3_0 1 (bvadd (_ bv63 6) ?x7154)) (stack_t x_0 x_1 w_2 w_3 x_SHA3_0 0 (bvadd (_ bv62 6) ?x63)))))
 (let (($x4582 (= $x772 (or (exc_halt_s 5) (not (bvsle (_ bv0 6) (bvadd (_ bv62 6) (sc_s 5))))))))
 (let (($x11086 (forall ((w (_ BitVec 256)) )(let ((?x702 (storage_s x_0 x_1 w_2 w_3 x_SHA3_0 5 w)))
 (let ((?x10856 (storage_s x_0 x_1 w_2 w_3 x_SHA3_0 6 w)))
 (= ?x10856 ?x702))))
 ))
 (let (($x1780 (forall ((n (_ BitVec 6)) )(let ((?x693 (stack_s x_0 x_1 w_2 w_3 x_SHA3_0 5 n)))
 (let ((?x7625 (stack_s x_0 x_1 w_2 w_3 x_SHA3_0 6 n)))
 (or (= ?x7625 ?x693) (bvsle (bvadd (_ bv62 6) (sc_s 5)) n)))))
 ))
 (let ((?x4319 (sc_s 5)))
 (let (($x9550 (= ?x926 ?x4319)))
 (let (($x421 (= (used_gas_s x_0 x_1 w_2 w_3 x_SHA3_0 6) (+ 3 (used_gas_s x_0 x_1 w_2 w_3 x_SHA3_0 5)))))
 (let (($x9975 (= (stack_s x_0 x_1 w_2 w_3 x_SHA3_0 6 (bvadd (_ bv62 6) ?x926)) (stack_s x_0 x_1 w_2 w_3 x_SHA3_0 5 (bvadd (_ bv63 6) ?x4319)))))
 (let (($x4779 (= (stack_s x_0 x_1 w_2 w_3 x_SHA3_0 6 (bvadd (_ bv63 6) ?x926)) (stack_s x_0 x_1 w_2 w_3 x_SHA3_0 5 (bvadd (_ bv62 6) ?x4319)))))
 (let (($x11317 (exc_halt_s 5)))
 (let (($x3601 (= $x11317 (or (exc_halt_s 4) (not (bvsle (_ bv0 6) (bvadd (_ bv63 6) (sc_s 4))))))))
 (let (($x10930 (forall ((w (_ BitVec 256)) )(let ((?x11114 (storage_s x_0 x_1 w_2 w_3 x_SHA3_0 4 w)))
 (let ((?x702 (storage_s x_0 x_1 w_2 w_3 x_SHA3_0 5 w)))
 (= ?x702 ?x11114))))
 ))
 (let (($x2932 (forall ((n (_ BitVec 6)) )(let ((?x10777 (stack_s x_0 x_1 w_2 w_3 x_SHA3_0 4 n)))
 (let ((?x693 (stack_s x_0 x_1 w_2 w_3 x_SHA3_0 5 n)))
 (let ((?x4305 (sc_s 4)))
 (let ((?x4400 (bvadd (_ bv63 6) ?x4305)))
 (let (($x1698 (bvsle ?x4400 n)))
 (or $x1698 (= ?x693 ?x10777))))))))
 ))
 (let ((?x4365 (used_gas_s x_0 x_1 w_2 w_3 x_SHA3_0 5)))
 (let (($x7172 (exc_halt_s 4)))
 (let (($x11455 (= $x7172 (or (exc_halt_s 3) (not (bvsle (_ bv0 6) (bvadd (_ bv61 6) (sc_s 3))))))))
 (let (($x9723 (forall ((w (_ BitVec 256)) )(let ((?x4570 (storage_s x_0 x_1 w_2 w_3 x_SHA3_0 3 w)))
 (let ((?x11114 (storage_s x_0 x_1 w_2 w_3 x_SHA3_0 4 w)))
 (= ?x11114 ?x4570))))
 ))
 (let (($x7557 (forall ((n (_ BitVec 6)) )(let ((?x275 (sc_s 3)))
 (let ((?x8712 (bvadd (_ bv61 6) ?x275)))
 (let (($x10862 (bvsle ?x8712 n)))
 (let ((?x3672 (stack_s x_0 x_1 w_2 w_3 x_SHA3_0 3 n)))
 (let ((?x10777 (stack_s x_0 x_1 w_2 w_3 x_SHA3_0 4 n)))
 (or (= ?x10777 ?x3672) $x10862)))))))
 ))
 (let ((?x275 (sc_s 3)))
 (let ((?x4305 (sc_s 4)))
 (let (($x7359 (= ?x4305 ?x275)))
 (let ((?x4597 (used_gas_s x_0 x_1 w_2 w_3 x_SHA3_0 4)))
 (let (($x174 (= (stack_s x_0 x_1 w_2 w_3 x_SHA3_0 4 (bvadd (_ bv62 6) ?x4305)) (stack_s x_0 x_1 w_2 w_3 x_SHA3_0 3 (bvadd (_ bv62 6) ?x275)))))
 (let (($x990 (= (stack_s x_0 x_1 w_2 w_3 x_SHA3_0 4 (bvadd (_ bv61 6) ?x4305)) (stack_s x_0 x_1 w_2 w_3 x_SHA3_0 3 (bvadd (_ bv63 6) ?x275)))))
 (let (($x820 (= (stack_s x_0 x_1 w_2 w_3 x_SHA3_0 4 (bvadd (_ bv63 6) ?x4305)) (stack_s x_0 x_1 w_2 w_3 x_SHA3_0 3 (bvadd (_ bv61 6) ?x275)))))
 (let (($x9863 (not (= ((_ extract 6 6) (bvadd (_ bv1 7) (concat (_ bv0 1) (sc_s 2)))) (_ bv0 1)))))
 (let (($x247 (exc_halt_s 2)))
 (let (($x292 (exc_halt_s 3)))
 (let (($x9516 (= $x292 (or $x247 $x9863))))
 (let (($x7336 (forall ((w (_ BitVec 256)) )(let ((?x9845 (storage_s x_0 x_1 w_2 w_3 x_SHA3_0 2 w)))
 (let ((?x4570 (storage_s x_0 x_1 w_2 w_3 x_SHA3_0 3 w)))
 (= ?x4570 ?x9845))))
 ))
 (let (($x9597 (forall ((n (_ BitVec 6)) )(let ((?x11348 (stack_s x_0 x_1 w_2 w_3 x_SHA3_0 2 n)))
 (let ((?x3672 (stack_s x_0 x_1 w_2 w_3 x_SHA3_0 3 n)))
 (let ((?x218 (sc_s 2)))
 (let (($x3365 (bvsle ?x218 n)))
 (or $x3365 (= ?x3672 ?x11348)))))))
 ))
 (let (($x1829 (= ?x275 (bvadd (_ bv1 6) (sc_s 2)))))
 (let ((?x1033 (used_gas_s x_0 x_1 w_2 w_3 x_SHA3_0 3)))
 (let (($x4986 (= $x247 (or (exc_halt_s 1) (not (bvsle (_ bv0 6) (bvadd (_ bv62 6) (sc_s 1))))))))
 (let (($x6007 (forall ((w (_ BitVec 256)) )(let ((?x11273 (storage_s x_0 x_1 w_2 w_3 x_SHA3_0 1 w)))
 (let ((?x9845 (storage_s x_0 x_1 w_2 w_3 x_SHA3_0 2 w)))
 (= ?x9845 ?x11273))))
 ))
 (let (($x983 (forall ((n (_ BitVec 6)) )(let ((?x7159 (stack_s x_0 x_1 w_2 w_3 x_SHA3_0 1 n)))
 (let ((?x11348 (stack_s x_0 x_1 w_2 w_3 x_SHA3_0 2 n)))
 (or (bvsle (bvadd (_ bv62 6) (sc_s 1)) n) (= ?x11348 ?x7159)))))
 ))
 (let ((?x10618 (used_gas_s x_0 x_1 w_2 w_3 x_SHA3_0 2)))
 (let ((?x8903 (f_SHA3 x_0 x_1 w_2 w_3 x_SHA3_0 (stack_s x_0 x_1 w_2 w_3 x_SHA3_0 1 (bvadd (_ bv63 6) (sc_s 1))) (stack_s x_0 x_1 w_2 w_3 x_SHA3_0 1 (bvadd (_ bv62 6) (sc_s 1))))))
 (let (($x9980 (= (stack_s x_0 x_1 w_2 w_3 x_SHA3_0 2 (bvadd (_ bv63 6) (sc_s 2))) ?x8903)))
 (let (($x189 (exc_halt_s 1)))
 (let (($x5870 (= $x189 (or $x57 (not (= ((_ extract 6 6) (bvadd (_ bv1 7) (concat (_ bv0 1) ?x72))) (_ bv0 1)))))))
 (let (($x7583 (forall ((w (_ BitVec 256)) )(let ((?x7448 (storage_s x_0 x_1 w_2 w_3 x_SHA3_0 0 w)))
 (let ((?x11273 (storage_s x_0 x_1 w_2 w_3 x_SHA3_0 1 w)))
 (= ?x11273 ?x7448))))
 ))
 (let (($x1338 (forall ((n (_ BitVec 6)) )(let ((?x72 (sc_s 0)))
 (let (($x11860 (bvsle ?x72 n)))
 (let ((?x7436 (stack_s x_0 x_1 w_2 w_3 x_SHA3_0 0 n)))
 (let ((?x7159 (stack_s x_0 x_1 w_2 w_3 x_SHA3_0 1 n)))
 (or (= ?x7159 ?x7436) $x11860))))))
 ))
 (let ((?x154 (sc_s 1)))
 (let (($x11668 (= ?x154 (bvadd (_ bv1 6) ?x72))))
 (let (($x1876 (forall ((w0 (_ BitVec 256)) (w1 (_ BitVec 256)) )(let (($x2590 (= (stack_s x_0 x_1 w_2 w_3 x_SHA3_0 1 (bvadd (_ bv62 6) (sc_s 1))) w1)))
 (let (($x8904 (= (stack_s x_0 x_1 w_2 w_3 x_SHA3_0 1 (bvadd (_ bv63 6) (sc_s 1))) w0)))
 (let ((?x2103 (f_SHA3 x_0 x_1 w_2 w_3 x_SHA3_0 w0 w1)))
 (= ?x2103 (ite (and $x8904 $x2590) x_SHA3_0 (_ bv0 256)))))))
 ))
 (let (($x10598 (forall ((w (_ BitVec 256)) )(let ((?x7448 (storage_s x_0 x_1 w_2 w_3 x_SHA3_0 0 w)))
 (= ?x7448 (_ bv0 256))))
 ))
 (let (($x10133 (= ?x7703 0)))
 (let (($x11580 (not $x57)))
 (let (($x7942 (= (stack_s x_0 x_1 w_2 w_3 x_SHA3_0 0 (_ bv1 6)) x_1)))
 (let (($x4821 (= (stack_s x_0 x_1 w_2 w_3 x_SHA3_0 0 (_ bv0 6)) x_0)))
 (let (($x11128 (= ?x72 (_ bv2 6))))
 (and $x11128 $x4821 $x7942 $x11580 $x10133 $x10598 $x1876 (= (stack_s x_0 x_1 w_2 w_3 x_SHA3_0 1 ?x72) w_2) (= (used_gas_s x_0 x_1 w_2 w_3 x_SHA3_0 1) (+ 3 ?x7703)) $x11668 $x1338 $x7583 $x5870 $x9980 (= ?x10618 (+ 30 (used_gas_s x_0 x_1 w_2 w_3 x_SHA3_0 1))) (= (sc_s 2) (bvadd (_ bv63 6) ?x154)) $x983 $x6007 $x4986 (= (stack_s x_0 x_1 w_2 w_3 x_SHA3_0 3 (sc_s 2)) w_3) (= ?x1033 (+ 3 ?x10618)) $x1829 $x9597 $x7336 $x9516 $x820 $x990 $x174 (= ?x4597 (+ 3 ?x1033)) $x7359 $x7557 $x9723 $x11455 (= ?x4365 (+ 2 ?x4597)) (= ?x4319 (bvadd (_ bv63 6) ?x4305)) $x2932 $x10930 $x3601 $x4779 $x9975 $x421 $x9550 $x1780 $x11086 $x4582 $x11461 $x680 (= (used_gas_t x_0 x_1 w_2 w_3 x_SHA3_0 1) (+ 3 ?x3562)) $x9808 $x4476 $x3501 (= (exc_halt_t 1) (or $x56 (not (bvsle (_ bv0 6) (bvadd (_ bv62 6) ?x63))))) (= ?x9538 (+ 2 (used_gas_t x_0 x_1 w_2 w_3 x_SHA3_0 1))) (= (sc_t 2) (bvadd (_ bv63 6) ?x7154)) $x9530 $x2316 $x3477 (= (stack_t x_0 x_1 w_2 w_3 x_SHA3_0 3 (sc_t 2)) w_2) (= ?x9416 (+ 3 ?x9538)) (= (sc_t 3) (bvadd (_ bv1 6) (sc_t 2))) $x8325 $x3796 (= $x3614 $x4347) $x5110 (= ?x7424 (+ 30 ?x9416)) (= (sc_t 4) (bvadd (_ bv63 6) (sc_t 3))) $x8630 $x10672 $x11807 (= (stack_t x_0 x_1 w_2 w_3 x_SHA3_0 5 (sc_t 4)) w_3) $x10182 (= ?x8961 (bvadd (_ bv1 6) (sc_t 4))) $x4032 $x6234 (= $x1885 $x4077) $x73 $x7685 $x58 $x6788 $x9094 (not (and $x5889 $x11682 $x11108 $x10205)))))))))))))))))))))))))))))))))))))))))))))))))))))))))))))))))))))))))))))))))))))))))))))))))))))
 )
(check-sat)
(get-proof)
